c preprocessed version of celar11-wpp, 48 vertices, 264 edges
p td 48 264
0 1
0 4
0 43
0 2
0 3
0 5
0 11
0 16
0 19
0 30
0 26
0 27
0 42
0 29
0 18
0 20
1 2
1 3
1 5
1 11
1 6
1 16
1 19
1 15
1 30
1 4
1 29
1 27
1 43
2 3
2 5
2 4
2 43
11 2
16 2
20 2
19 2
4 3
3 5
3 43
11 3
6 3
16 3
19 3
12 3
4 5
4 43
6 4
16 4
19 4
4 11
4 29
6 5
11 5
16 5
19 5
20 5
5 43
6 7
11 6
6 15
6 36
6 39
17 6
6 16
6 19
6 12
6 30
6 37
6 38
6 13
8 7
7 36
7 39
7 37
7 38
20 7
19 7
7 21
9 8
31 8
32 8
8 37
33 8
10 9
14 9
9 32
22 9
31 9
33 9
11 10
12 10
10 14
16 10
20 10
19 10
15 10
13 10
10 32
10 42
11 12
11 38
11 40
11 15
11 39
11 16
11 20
11 19
11 30
11 27
11 29
11 18
11 28
12 13
12 14
15 12
16 12
19 12
12 30
12 29
13 14
15 13
17 13
16 13
20 13
19 13
15 14
14 32
16 14
14 18
16 15
20 15
19 15
15 18
15 30
17 16
16 19
16 27
16 18
16 28
16 29
16 30
16 43
35 16
17 18
19 18
27 18
28 18
29 18
30 18
20 19
19 25
19 26
19 42
19 21
19 30
19 37
19 28
19 27
19 39
19 40
19 29
19 43
34 19
20 21
20 37
20 25
20 28
20 31
20 41
20 42
34 20
22 21
23 21
25 21
26 21
21 42
37 21
22 23
22 24
22 31
23 24
23 31
23 32
25 24
34 24
25 26
25 42
34 25
26 27
26 42
28 27
27 29
28 29
30 28
30 29
30 31
30 40
30 41
31 32
33 31
33 32
34 33
35 33
34 35
35 36
37 36
36 38
36 39
37 38
37 39
38 39
38 40
39 40
42 41
44 6
44 45
44 10
44 13
44 17
44 19
44 46
44 43
44 29
45 47
45 6
45 12
45 10
45 15
45 13
45 14
45 17
45 46
46 3
46 6
46 14
46 13
46 17
46 16
46 19
46 29
46 18
46 5
47 44
47 46
47 0
47 1
47 2
47 3
47 4
47 7
47 37
47 38
47 43
47 17
47 11
47 6
47 19
47 15
47 13
47 30
47 10
47 41
47 36
